Li1 Mg1
1.0
   3.4153259999999990    0.0000000000000000    0.0000000000000002
   0.0000000000000005    3.4153259999999990    0.0000000000000002
   0.0000000000000000    0.0000000000000000    3.4153259999999990
Li Mg
1 1
direct
   0.0000000000000000    0.0000000000000000    0.0000000000000000 Li
   0.5000000000000000    0.5000000000000000    0.5000000000000000 Mg
