Li9
1.0
   1.5393364128663929   -2.6662088770254142    0.0000000000000000
   1.5393364128663929    2.6662088770254142    0.0000000000000000
   0.0000000000000000    0.0000000000000000   22.3694339700001095
Li
9
direct
   0.6666666666666666    0.3333333333333333    0.1103612533333334 Li
   0.0000000000000000    0.0000000000000000    0.2229720800000000 Li
   0.0000000000000000    0.0000000000000000    0.0000000000000000 Li
   0.3333333333333333    0.6666666666666666    0.4436945866666667 Li
   0.6666666666666666    0.3333333333333333    0.5563054133333333 Li
   0.6666666666666665    0.3333333333333333    0.3333333333333333 Li
   0.0000000000000000    0.0000000000000000    0.7770279200000000 Li
   0.3333333333333333    0.6666666666666666    0.8896387466666666 Li
   0.3333333333333333    0.6666666666666665    0.6666666666666665 Li
