Li5 Mg1
1.0
  -4.5762565500000001    2.6421013599999998   -0.0000000000000000
   0.0007160500000000   -5.2829653399999996   -0.0122571300000000
  -1.5189512700000001    2.6533034400000002    4.9935155800000004
Li Mg
5 1
direct
  -0.0031722100000000    0.0000000000000000   -0.0000000000000000 Li
   0.6699022800000000    0.3365116800000000    0.9997445800000000 Li
   0.3331351800000000    0.6634893200000000    0.0002554200000000 Li
   0.4996117200000000    0.8335880700000000    0.5011809000000000 Li
   0.1672045600000000    0.1664129300000000    0.4988201000000000 Li
   0.8333144700000000    0.5000000000000000    0.5000000000000000 Mg
