Li4 Al2
1.0
   0.0000000000000000   -0.0000000000000000    4.4308970600000004
   4.5845822700000003   -0.0000000000000000   -0.0000000000000000
  -2.2922916400000002    4.8332396199999996    0.0000000000000000
Li Al
4 2
direct
   0.2500000000000000    0.7586075000000000    0.5172150000000000 Li
   0.7500000000000000    0.2413925000000000    0.4827850000000000 Li
   0.2500000000000000    0.4101381900000000    0.8202763900000000 Li
   0.7500000000000000    0.5898618100000000    0.1797236100000000 Li
   0.2500000000000000    0.0749820500000000    0.1499640900000000 Al
   0.7500000000000000    0.9250179500000000    0.8500359100000000 Al
