Li8 Al8
1.0
   6.3267854215866279    0.0000000000000000    0.0000000000000004
   0.0000000000000010    6.3267854215866279    0.0000000000000004
   0.0000000000000000    0.0000000000000000    6.3267854215866279
Li Al
8 8
direct
   0.2500000000000000    0.2500000000000000    0.2500000000000000 Li
   0.5000000000000000    0.5000000000000000    0.0000000000000000 Li
   0.2500000000000000    0.7500000000000000    0.7500000000000000 Li
   0.5000000000000000    0.0000000000000000    0.5000000000000000 Li
   0.7500000000000000    0.2500000000000000    0.7500000000000000 Li
   0.0000000000000000    0.5000000000000000    0.5000000000000000 Li
   0.7500000000000000    0.7500000000000000    0.2500000000000000 Li
   0.0000000000000000    0.0000000000000000    0.0000000000000000 Li
   0.2500000000000000    0.7500000000000000    0.2500000000000000 Al
   0.5000000000000000    0.0000000000000000    0.0000000000000000 Al
   0.2500000000000000    0.2500000000000000    0.7500000000000000 Al
   0.5000000000000000    0.5000000000000000    0.5000000000000000 Al
   0.7500000000000000    0.7500000000000000    0.7500000000000000 Al
   0.0000000000000000    0.0000000000000000    0.5000000000000000 Al
   0.7500000000000000    0.2500000000000000    0.2500000000000000 Al
   0.0000000000000000    0.5000000000000000    0.0000000000000000 Al
