cif
1.0
        3.2242004871         0.0000000000         0.0000000000
        0.0000103039         3.2242205143         0.0000000000
        0.0000008587         0.0000012880         3.2242310047
   Al
    2
Direct
     0.940059066         0.308888584         0.069607764
     0.456407309         0.308890760         0.553247571
