Zr2 Al2
1.0
3.197220 0.000000 0.000000
0.000000 4.917443 -0.000000
-0.000000 -0.533827 4.888382
Zr Al
2 2
direct
0.884622 0.068041 0.280740 Zr
0.884622 0.616082 0.732697 Zr
0.384622 0.120583 0.785240 Al
0.384622 0.563542 0.228197 Al
