Al2
1.0
3.224200 0.000000 0.000000
0.000000 3.224200 0.000000
0.000000 0.000000 3.224200
Al
2
direct
0.940059 0.308889 0.069608 Al
0.456407 0.308891 0.553248 Al
