Al2 Cu2
1.0
2.982574 -0.000000 0.000000
-0.000000 4.217522 -0.000000
0.000002 0.000000 4.217523
Al Cu
2 2
direct
0.219761 0.238230 0.260646 Al
0.219762 0.738230 0.760645 Al
0.719763 0.738230 0.260645 Cu
0.719761 0.238230 0.760645 Cu
